This is Ipopt version 3.10.0, running with linear solver ma27.

Number of nonzeros in equality constraint Jacobian...:        0
Number of nonzeros in inequality constraint Jacobian.:       16
Number of nonzeros in Lagrangian Hessian.............:        0

Total number of variables............................:       16
                     variables with only lower bounds:        0
                variables with lower and upper bounds:       16
                     variables with only upper bounds:        0
Total number of equality constraints.................:        0
Total number of inequality constraints...............:        1
        inequality constraints with only lower bounds:        0
   inequality constraints with lower and upper bounds:        0
        inequality constraints with only upper bounds:        1

iter    objective    inf_pr   inf_du lg(mu)  ||d||  lg(rg) alpha_du alpha_pr  ls
   0  2.6093756e-03 2.93e-01 9.96e-01   0.0 0.00e+00    -  0.00e+00 0.00e+00   0
   1  6.6398029e-03 0.00e+00 6.13e-01  -1.6 2.44e-02    -  1.00e+00 1.00e+00h  1
   2  5.8963114e-03 0.00e+00 9.21e-02  -2.7 5.20e-03    -  1.00e+00 1.00e+00h  1
   3  4.5805210e-03 0.00e+00 1.92e-01  -3.3 5.83e-02    -  1.00e+00 9.86e-01h  1
   4  4.4609186e-03 0.00e+00 4.90e-03  -3.8 8.00e-03    -  1.00e+00 1.00e+00h  1
   5  4.1854521e-03 0.00e+00 8.37e-03  -4.6 1.81e-02    -  1.00e+00 1.00e+00h  1
   6  4.1841632e-03 0.00e+00 1.10e-02  -5.4 6.50e-03    -  1.00e+00 1.00e+00h  1
   7  4.3729639e-03 0.00e+00 5.20e-02  -4.5 2.17e-02    -  1.00e+00 9.34e-01H  1
   8  4.2485581e-03 0.00e+00 3.57e-02  -5.2 4.35e-03    -  1.00e+00 1.00e+00h  1
   9  4.1894869e-03 1.03e-04 1.82e-02  -5.7 1.46e-02    -  1.00e+00 9.80e-01h  1
iter    objective    inf_pr   inf_du lg(mu)  ||d||  lg(rg) alpha_du alpha_pr  ls
  10  4.2128615e-03 0.00e+00 2.36e-02  -5.3 1.53e-03    -  1.00e+00 1.00e+00h  1
  11  4.2095622e-03 1.71e-02 3.19e-02  -6.1 3.32e-03    -  1.00e+00 3.77e-02h  5
  12  4.3379248e-03 0.00e+00 1.12e-02  -5.7 1.12e-03    -  1.00e+00 1.00e+00h  1
  13  4.1904988e-03 0.00e+00 2.94e-02  -5.7 9.03e-04    -  8.16e-01 1.00e+00h  1
  14  4.1755731e-03 0.00e+00 2.49e-02  -5.7 1.16e-03    -  1.00e+00 7.22e-01h  1
  15  4.1430264e-03 0.00e+00 2.48e-02  -6.1 4.71e-04    -  1.00e+00 1.00e+00f  1
  16  4.1420665e-03 0.00e+00 2.11e-02  -5.8 1.83e-03    -  1.00e+00 7.39e-01h  1
  17  4.1437366e-03 0.00e+00 2.27e-02  -5.6 4.20e-03    -  1.00e+00 3.07e-02h  5
  18  4.2172877e-03 0.00e+00 1.75e-02  -5.7 3.39e-03    -  1.00e+00 5.69e-01H  1
  19  4.2078452e-03 0.00e+00 3.36e-03  -5.7 7.91e-04    -  1.00e+00 8.88e-01f  1
iter    objective    inf_pr   inf_du lg(mu)  ||d||  lg(rg) alpha_du alpha_pr  ls
  20  4.2020555e-03 2.17e-03 8.21e-03  -5.8 3.99e-04    -  1.00e+00 1.00e+00h  1
  21  4.2230864e-03 0.00e+00 1.80e-03  -5.8 2.57e-04    -  1.00e+00 1.00e+00h  1
  22  4.2212113e-03 0.00e+00 2.24e-03  -5.8 3.06e-05    -  1.00e+00 1.00e+00h  1

Number of Iterations....: 22

                                   (scaled)                 (unscaled)
Objective...............:   4.2212113223737335e-03    4.2212113223737335e-03
Dual infeasibility......:   2.2448618169178644e-03    2.2448618169178644e-03
Constraint violation....:   0.0000000000000000e+00    0.0000000000000000e+00
Complementarity.........:   1.5355611861672456e-06    1.5355611861672456e-06
Overall NLP error.......:   2.2448618169178644e-03    2.2448618169178644e-03


Number of objective function evaluations             = 39
Number of objective gradient evaluations             = 23
Number of equality constraint evaluations            = 0
Number of inequality constraint evaluations          = 39
Number of equality constraint Jacobian evaluations   = 0
Number of inequality constraint Jacobian evaluations = 23
Number of Lagrangian Hessian evaluations             = 0
Total CPU secs in IPOPT (w/o function evaluations)   =      0.686
Total CPU secs in NLP function evaluations           =  78631.225

EXIT: Stopping optimization at current point as requested by user.
